6977
7202
7022
7033
7024
7125
7016
6919
7129
6945
6880
6976
7048
7070
7076
7130
7141
7054
7071
7040
7111
6912
6981
7064
6885
6966
6917
6993
7051
7008
7111
7026
6992
7081
7140
7017
6940
7034
6985
7058
7132
7088
6948
7107
6968
7109
7037
7043
7183
7054
7012
7025
7073
7030
7105
6894
7009
7077
7120
7050
7009
7027
7100
7075
6893
6985
7082
7030
7081
7109
7153
7015
7028
7088
6981
7113
7019
7001
7007
7062
6927
7075
6946
7169
7113
7054
6939
7036
6988
7059
6995
6871
7095
7091
7089
7099
6971
7119
7132
6914
